
Gurobi 10.0.1 (win64) logging started Tue Aug 29 02:53:10 2023

Set parameter LogFile to value "results//log/URT_06_deadline.log"
Gurobi Optimizer version 10.0.1 build v10.0.1rc0 (win64)

CPU model: AMD Ryzen 7 3700X 8-Core Processor, instruction set [SSE2|AVX|AVX2]
Thread count: 8 physical cores, 16 logical processors, using up to 16 threads

Optimize a model with 100 rows, 103 columns and 348 nonzeros
Model fingerprint: 0xfe0f8ead
Model has 1 quadratic constraint
Variable types: 9 continuous, 94 integer (93 binary)
Coefficient statistics:
  Matrix range     [1e+00, 1e+06]
  QMatrix range    [1e+00, 1e+00]
  QLMatrix range   [1e+00, 5e+00]
  Objective range  [1e+00, 1e+00]
  Bounds range     [1e+00, 1e+00]
  RHS range        [1e+00, 3e+06]
Presolve removed 57 rows and 77 columns
Presolve time: 0.00s
Presolved: 43 rows, 26 columns, 124 nonzeros
Variable types: 7 continuous, 19 integer (18 binary)
Found heuristic solution: objective 136.0000000
Found heuristic solution: objective 134.0000000

Root relaxation: objective 5.400000e+01, 10 iterations, 0.00 seconds (0.00 work units)

    Nodes    |    Current Node    |     Objective Bounds      |     Work
 Expl Unexpl |  Obj  Depth IntInf | Incumbent    BestBd   Gap | It/Node Time

     0     0   54.00000    0    6  134.00000   54.00000  59.7%     -    0s
H    0     0                     121.0000000   70.00000  42.1%     -    0s
H    0     0                     114.0000000   70.00000  38.6%     -    0s
H    0     0                     112.0000000   70.00000  37.5%     -    0s
     0     0   70.00010    0    6  112.00000   70.00010  37.5%     -    0s
     0     0   86.00000    0    6  112.00000   86.00000  23.2%     -    0s
     0     0  112.00000    0    5  112.00000  112.00000  0.00%     -    0s

Cutting planes:
  Implied bound: 1
  RLT: 2
  Relax-and-lift: 1

Explored 1 nodes (41 simplex iterations) in 0.04 seconds (0.00 work units)
Thread count was 16 (of 16 available processors)

Solution count 5: 112 114 121 ... 136

Optimal solution found (tolerance 1.00e-04)
Best objective 1.120000000000e+02, best bound 1.120000000000e+02, gap 0.0000%
Warning: constraint name "precedence between 0,1 to 0,0 if x_[j,l,h,z,i]=1" has a space
Warning: constraint name "precedence between 0,1 to 0,0 if x_[j,l,h,z,i]=1" has a space
Warning: default constraint names used to write mps file
